\* mdp_lp *\
Minimize
OBJ: v_star_0 + v_star_1
Subject To
_C1: - v_star_0 <= 0.593665612812
_C2: - v_star_0 <= 0.274351056872
_C3: - v_star_1 <= 0.144614112837
_C4: - v_star_1 <= 0.517366862895
Bounds
v_star_0 free
v_star_1 free
End
